Minimize
  - 19 y_0 - 12 y_1 - 19 y_2 - 9 y_3 - 13 y_4 - 5 y_5 - 16 y_6 - 6 y_7
   - 18 y_9 - 9 y_10 - 8 y_11 - 8 y_12 - 13 y_13 - 18 y_14 - 11 y_15
   - 19 y_16 - 10 y_17 - 14 y_18 - 18 y_19 + 245 Constant
Subject To
 c_0: y_2 = 1
 c_1_0: y_0 + y_6 + y_9 + y_16 >= 1
 c_1_1: y_1 + y_3 + y_10 + y_13 + y_15 + y_18 >= 1
 c_1_2: y_2 + y_19 >= 1
 c_1_3: y_1 + y_3 + y_5 + y_10 + y_12 + y_15 >= 1
 c_1_4: y_4 + y_17 >= 1
 c_1_5: y_3 + y_5 + y_7 + y_12 >= 1
 c_1_6: y_0 + y_6 + y_9 + y_14 >= 1
 c_1_7: y_5 + y_7 + y_12 >= 1
 c_1_8: y_8 >= 1
 c_1_9: y_0 + y_6 + y_9 + y_14 >= 1
 c_1_10: y_1 + y_3 + y_10 + y_12 + y_15 >= 1
 c_1_11: y_11 >= 1
 c_1_12: y_3 + y_5 + y_7 + y_10 + y_12 + y_15 >= 1
 c_1_13: y_1 + y_13 + y_18 >= 1
 c_1_14: y_6 + y_9 + y_14 >= 1
 c_1_15: y_1 + y_3 + y_10 + y_12 + y_15 + y_18 >= 1
 c_1_16: y_0 + y_16 >= 1
 c_1_17: y_4 + y_17 >= 1
 c_1_18: y_1 + y_13 + y_15 + y_18 >= 1
 c_1_19: y_2 + y_19 >= 1
Bounds
 Constant = 1
Binaries
 y_0 y_1 y_2 y_3 y_4 y_5 y_6 y_7 y_8 y_9 y_10 y_11 y_12 y_13 y_14 y_15 y_16
 y_17 y_18 y_19
End
